NAME: rand_0/map5_480
TYPE: TSP
COMMENT: autogenerated using a wonderful map creator
DIMENSION: 600
EDGE_WEIGHT_TYPE: EUC_2D
NODE_COORD_SECTION
1 3.0 5.0
2 10.0 3.0
3 31.0 5.0
4 35.0 1.0
5 40.0 98.0
6 18.0 94.0
7 42.0 1.0
8 5.0 98.0
9 36.0 4.0
10 40.0 95.0
11 22.0 5.0
12 18.0 5.0
13 42.0 98.0
14 22.0 96.0
15 25.0 1.0
16 21.0 98.0
17 44.0 99.0
18 11.0 97.0
19 44.0 6.0
20 43.0 4.0
21 9.0 99.0
22 5.0 1.0
23 24.0 96.0
24 38.0 6.0
25 42.0 97.0
26 25.0 95.0
27 2.0 2.0
28 44.0 3.0
29 4.0 99.0
30 29.0 95.0
31 33.0 96.0
32 11.0 2.0
33 28.0 98.0
34 33.0 2.0
35 6.0 99.0
36 8.0 98.0
37 4.0 4.0
38 27.0 4.0
39 11.0 99.0
40 13.0 95.0
41 9.0 4.0
42 37.0 5.0
43 32.0 4.0
44 5.0 99.0
45 35.0 3.0
46 32.0 99.0
47 31.0 99.0
48 14.0 6.0
49 16.0 97.0
50 33.0 3.0
51 2.0 5.0
52 9.0 98.0
53 35.0 94.0
54 17.0 2.0
55 3.0 99.0
56 9.0 97.0
57 27.0 2.0
58 17.0 1.0
59 39.0 95.0
60 3.0 96.0
61 30.0 1.0
62 30.0 97.0
63 4.0 3.0
64 29.0 6.0
65 11.0 4.0
66 28.0 2.0
67 18.0 1.0
68 3.0 4.0
69 4.0 2.0
70 29.0 2.0
71 16.0 4.0
72 20.0 6.0
73 22.0 3.0
74 33.0 98.0
75 12.0 99.0
76 8.0 97.0
77 24.0 1.0
78 19.0 95.0
79 13.0 5.0
80 33.0 99.0
81 43.0 97.0
82 14.0 97.0
83 27.0 95.0
84 34.0 2.0
85 5.0 3.0
86 35.0 96.0
87 22.0 97.0
88 7.0 2.0
89 21.0 3.0
90 33.0 95.0
91 9.0 2.0
92 38.0 99.0
93 25.0 99.0
94 12.0 3.0
95 24.0 2.0
96 36.0 97.0
97 22.0 98.0
98 37.0 98.0
99 29.0 98.0
100 19.0 1.0
101 3.0 2.0
102 43.0 1.0
103 4.0 98.0
104 43.0 95.0
105 23.0 95.0
106 36.0 3.0
107 12.0 5.0
108 33.0 6.0
109 17.0 3.0
110 38.0 97.0
111 41.0 99.0
112 15.0 1.0
113 25.0 2.0
114 31.0 97.0
115 16.0 98.0
116 44.0 96.0
117 41.0 96.0
118 7.0 97.0
119 44.0 4.0
120 26.0 4.0
121 6.0 98.0
122 28.0 5.0
123 32.0 98.0
124 38.0 95.0
125 30.0 96.0
126 12.0 97.0
127 23.0 4.0
128 7.0 1.0
129 21.0 2.0
130 2.0 4.0
131 10.0 96.0
132 37.0 99.0
133 42.0 6.0
134 29.0 4.0
135 34.0 3.0
136 2.0 95.0
137 29.0 5.0
138 3.0 94.0
139 8.0 6.0
140 13.0 96.0
141 8.0 94.0
142 38.0 96.0
143 16.0 5.0
144 43.0 5.0
145 39.0 3.0
146 13.0 1.0
147 5.0 94.0
148 38.0 4.0
149 42.0 5.0
150 4.0 95.0
151 14.0 4.0
152 40.0 96.0
153 24.0 99.0
154 40.0 5.0
155 1.0 3.0
156 27.0 6.0
157 7.0 3.0
158 23.0 99.0
159 17.0 99.0
160 15.0 95.0
161 35.0 2.0
162 30.0 4.0
163 42.0 4.0
164 15.0 4.0
165 43.0 2.0
166 12.0 98.0
167 36.0 2.0
168 20.0 96.0
169 4.0 1.0
170 21.0 95.0
171 4.0 96.0
172 32.0 5.0
173 7.0 5.0
174 21.0 5.0
175 3.0 95.0
176 1.0 99.0
177 33.0 97.0
178 2.0 99.0
179 17.0 5.0
180 29.0 3.0
181 2.0 96.0
182 36.0 98.0
183 11.0 96.0
184 19.0 96.0
185 6.0 96.0
186 28.0 3.0
187 32.0 1.0
188 38.0 3.0
189 22.0 99.0
190 16.0 2.0
191 18.0 2.0
192 38.0 5.0
193 27.0 5.0
194 30.0 98.0
195 3.0 1.0
196 15.0 5.0
197 34.0 98.0
198 11.0 95.0
199 34.0 5.0
200 41.0 1.0
201 2.0 1.0
202 18.0 95.0
203 16.0 95.0
204 11.0 3.0
205 19.0 97.0
206 32.0 94.0
207 35.0 6.0
208 18.0 99.0
209 43.0 99.0
210 25.0 4.0
211 20.0 98.0
212 29.0 94.0
213 12.0 6.0
214 17.0 96.0
215 41.0 94.0
216 41.0 5.0
217 5.0 6.0
218 41.0 98.0
219 39.0 97.0
220 19.0 99.0
221 29.0 99.0
222 10.0 2.0
223 16.0 3.0
224 20.0 1.0
225 34.0 97.0
226 28.0 97.0
227 27.0 96.0
228 31.0 96.0
229 4.0 97.0
230 42.0 3.0
231 27.0 3.0
232 20.0 97.0
233 43.0 3.0
234 38.0 2.0
235 34.0 4.0
236 19.0 3.0
237 24.0 4.0
238 15.0 2.0
239 16.0 99.0
240 36.0 5.0
241 1.0 86.0
242 16.0 84.0
243 7.0 26.0
244 26.0 39.0
245 7.0 35.0
246 19.0 9.0
247 28.0 76.0
248 19.0 18.0
249 40.0 50.0
250 40.0 59.0
251 10.0 27.0
252 40.0 77.0
253 25.0 25.0
254 10.0 36.0
255 25.0 43.0
256 10.0 54.0
257 34.0 21.0
258 25.0 52.0
259 37.0 17.0
260 25.0 61.0
261 4.0 87.0
262 13.0 65.0
263 16.0 70.0
264 13.0 83.0
265 16.0 79.0
266 16.0 88.0
267 7.0 30.0
268 28.0 71.0
269 21.0 50.0
270 6.0 61.0
271 41.0 28.0
272 25.0 11.0
273 25.0 20.0
274 10.0 31.0
275 10.0 40.0
276 34.0 16.0
277 22.0 23.0
278 34.0 25.0
279 37.0 21.0
280 43.0 55.0
281 13.0 51.0
282 37.0 30.0
283 13.0 60.0
284 4.0 91.0
285 1.0 67.0
286 43.0 82.0
287 16.0 65.0
288 16.0 74.0
289 28.0 39.0
290 7.0 16.0
291 28.0 57.0
292 40.0 49.0
293 10.0 8.0
294 19.0 84.0
295 25.0 15.0
296 10.0 26.0
297 33.0 28.0
298 10.0 35.0
299 25.0 42.0
300 22.0 18.0
301 4.0 68.0
302 32.0 50.0
303 13.0 55.0
304 1.0 62.0
305 16.0 60.0
306 13.0 82.0
307 7.0 11.0
308 28.0 43.0
309 1.0 89.0
310 28.0 52.0
311 40.0 17.0
312 28.0 61.0
313 40.0 44.0
314 42.0 72.0
315 25.0 10.0
316 10.0 30.0
317 25.0 28.0
318 31.0 71.0
319 22.0 13.0
320 13.0 32.0
321 31.0 80.0
322 4.0 63.0
323 4.0 72.0
324 1.0 48.0
325 43.0 63.0
326 1.0 57.0
327 16.0 55.0
328 1.0 66.0
329 16.0 64.0
330 28.0 29.0
331 16.0 73.0
332 28.0 56.0
333 21.0 17.0
334 40.0 30.0
335 19.0 65.0
336 19.0 74.0
337 20.0 39.0
338 10.0 16.0
339 8.0 83.0
340 31.0 66.0
341 4.0 58.0
342 43.0 49.0
343 43.0 58.0
344 16.0 41.0
345 34.0 77.0
346 4.0 76.0
347 7.0 86.0
348 25.0 9.0
349 31.0 43.0
350 12.0 39.0
351 19.0 87.0
352 31.0 52.0
353 31.0 70.0
354 16.0 18.0
355 1.0 29.0
356 13.0 31.0
357 16.0 27.0
358 1.0 38.0
359 43.0 53.0
360 16.0 36.0
361 4.0 71.0
362 16.0 45.0
363 28.0 10.0
364 5.0 17.0
365 37.0 86.0
366 28.0 28.0
367 17.0 28.0
368 7.0 90.0
369 19.0 64.0
370 43.0 12.0
371 13.0 8.0
372 4.0 39.0
373 43.0 21.0
374 24.0 17.0
375 16.0 13.0
376 12.0 61.0
377 13.0 26.0
378 43.0 39.0
379 1.0 33.0
380 4.0 66.0
381 34.0 67.0
382 1.0 42.0
383 34.0 76.0
384 1.0 51.0
385 34.0 85.0
386 16.0 49.0
387 37.0 81.0
388 22.0 92.0
389 37.0 90.0
390 30.0 50.0
391 8.0 50.0
392 42.0 61.0
393 40.0 91.0
394 31.0 33.0
395 4.0 25.0
396 4.0 43.0
397 13.0 21.0
398 43.0 34.0
399 4.0 52.0
400 1.0 28.0
401 13.0 30.0
402 16.0 26.0
403 37.0 58.0
404 34.0 71.0
405 22.0 78.0
406 37.0 76.0
407 34.0 89.0
408 37.0 85.0
409 38.0 50.0
410 19.0 45.0
411 40.0 86.0
412 4.0 11.0
413 4.0 29.0
414 43.0 20.0
415 34.0 39.0
416 34.0 57.0
417 1.0 32.0
418 25.0 88.0
419 16.0 30.0
420 22.0 73.0
421 37.0 71.0
422 19.0 22.0
423 19.0 31.0
424 19.0 40.0
425 40.0 72.0
426 19.0 49.0
427 40.0 90.0
428 4.0 24.0
429 25.0 56.0
430 4.0 33.0
431 10.0 67.0
432 34.0 34.0
433 25.0 74.0
434 37.0 39.0
435 10.0 85.0
436 16.0 16.0
437 1.0 18.0
438 37.0 57.0
439 22.0 77.0
440 7.0 25.0
441 7.0 43.0
442 19.0 8.0
443 8.0 17.0
444 19.0 17.0
445 28.0 84.0
446 7.0 61.0
447 27.0 39.0
448 40.0 76.0
449 31.0 18.0
450 21.0 72.0
451 6.0 83.0
452 40.0 85.0
453 10.0 53.0
454 25.0 51.0
455 25.0 60.0
456 34.0 38.0
457 1.0 13.0
458 37.0 34.0
459 34.0 47.0
460 10.0 89.0
461 25.0 87.0
462 3.0 50.0
463 37.0 52.0
464 22.0 63.0
465 7.0 20.0
466 7.0 29.0
467 7.0 47.0
468 19.0 12.0
469 7.0 56.0
470 40.0 89.0
471 4.0 14.0
472 33.0 50.0
473 25.0 64.0
474 37.0 29.0
475 10.0 75.0
476 37.0 38.0
477 10.0 84.0
478 37.0 47.0
479 43.0 81.0
480 13.0 77.0
481 16.0 82.0
482 26.0 28.0
483 7.0 24.0
484 7.0 33.0
485 5.0 72.0
486 29.0 39.0
487 19.0 16.0
488 10.0 34.0
489 10.0 43.0
490 37.0 15.0
491 10.0 61.0
492 22.0 26.0
493 10.0 70.0
494 37.0 33.0
495 43.0 76.0
496 22.0 53.0
497 24.0 72.0
498 1.0 79.0
499 7.0 10.0
500 16.0 77.0
501 28.0 51.0
502 7.0 28.0
503 28.0 60.0
504 21.0 39.0
505 28.0 87.0
506 6.0 50.0
507 40.0 70.0
508 25.0 36.0
509 34.0 14.0
510 34.0 23.0
511 25.0 54.0
512 3.0 17.0
513 22.0 30.0
514 2.0 61.0
515 4.0 89.0
516 13.0 67.0
517 43.0 80.0
518 16.0 63.0
519 16.0 72.0
520 13.0 85.0
521 16.0 81.0
522 1.0 92.0
523 7.0 23.0
524 28.0 64.0
525 40.0 29.0
526 28.0 73.0
527 40.0 38.0
528 10.0 24.0
529 25.0 31.0
530 31.0 74.0
531 10.0 51.0
532 34.0 18.0
533 37.0 14.0
534 43.0 57.0
535 13.0 53.0
536 43.0 75.0
537 43.0 84.0
538 1.0 78.0
539 7.0 9.0
540 28.0 41.0
541 40.0 15.0
542 40.0 33.0
543 10.0 10.0
544 10.0 19.0
545 19.0 86.0
546 25.0 35.0
547 31.0 78.0
548 37.0 9.0
549 24.0 39.0
550 43.0 52.0
551 13.0 48.0
552 4.0 79.0
553 43.0 70.0
554 43.0 79.0
555 1.0 73.0
556 16.0 71.0
557 40.0 10.0
558 9.0 50.0
559 40.0 28.0
560 39.0 50.0
561 42.0 83.0
562 31.0 46.0
563 25.0 12.0
564 19.0 90.0
565 31.0 55.0
566 2.0 28.0
567 31.0 73.0
568 4.0 65.0
569 16.0 39.0
570 13.0 52.0
571 36.0 17.0
572 43.0 65.0
573 4.0 92.0
574 37.0 89.0
575 16.0 66.0
576 28.0 40.0
577 40.0 14.0
578 21.0 28.0
579 6.0 39.0
580 19.0 58.0
581 10.0 18.0
582 25.0 16.0
583 43.0 15.0
584 13.0 20.0
585 43.0 33.0
586 1.0 27.0
587 13.0 29.0
588 1.0 36.0
589 16.0 34.0
590 1.0 45.0
591 34.0 79.0
592 28.0 8.0
593 22.0 86.0
594 34.0 88.0
595 1.0 63.0
596 28.0 35.0
597 40.0 18.0
598 26.0 83.0
599 31.0 27.0
600 19.0 71.0
601 19.0 80.0
602 31.0 45.0
603 19.0 89.0
604 4.0 37.0
605 23.0 50.0
606 43.0 28.0
607 32.0 28.0
608 13.0 33.0
609 34.0 65.0
610 1.0 40.0
611 4.0 73.0
612 34.0 74.0
613 37.0 70.0
614 34.0 83.0
615 28.0 12.0
616 37.0 79.0
617 5.0 28.0
618 7.0 83.0
619 19.0 48.0
620 19.0 57.0
621 41.0 72.0
622 43.0 14.0
623 13.0 10.0
624 1.0 17.0
625 16.0 15.0
626 25.0 82.0
627 4.0 59.0
628 34.0 60.0
629 25.0 91.0
630 13.0 37.0
631 34.0 87.0
632 22.0 85.0
633 37.0 83.0
634 7.0 60.0
635 7.0 69.0
636 40.0 84.0
637 19.0 61.0
638 31.0 35.0
639 31.0 44.0
640 43.0 18.0
641 4.0 36.0
642 25.0 68.0
643 43.0 27.0
644 1.0 30.0
645 37.0 51.0
646 22.0 62.0
647 37.0 69.0
648 37.0 78.0
649 22.0 89.0
650 26.0 50.0
651 38.0 61.0
652 7.0 55.0
653 19.0 20.0
654 7.0 73.0
655 19.0 47.0
656 40.0 79.0
657 19.0 56.0
658 4.0 13.0
659 10.0 65.0
660 1.0 16.0
661 13.0 18.0
662 10.0 83.0
663 34.0 50.0
664 22.0 48.0
665 1.0 25.0
666 37.0 73.0
667 7.0 41.0
668 19.0 15.0
669 27.0 28.0
670 7.0 59.0
671 7.0 68.0
672 19.0 33.0
673 6.0 72.0
674 4.0 8.0
675 43.0 8.0
676 34.0 27.0
677 34.0 36.0
678 1.0 11.0
679 10.0 78.0
680 1.0 20.0
681 14.0 39.0
682 3.0 39.0
683 7.0 36.0
684 7.0 54.0
685 30.0 28.0
686 40.0 69.0
687 40.0 78.0
688 40.0 87.0
689 10.0 64.0
690 25.0 62.0
691 10.0 73.0
692 22.0 38.0
693 37.0 36.0
694 10.0 82.0
695 15.0 17.0
696 22.0 65.0
697 26.0 17.0
698 7.0 22.0
699 7.0 31.0
700 7.0 40.0
701 28.0 72.0
702 28.0 81.0
703 40.0 46.0
704 28.0 90.0
705 40.0 55.0
706 11.0 28.0
707 40.0 64.0
708 10.0 41.0
709 22.0 15.0
710 34.0 17.0
711 25.0 48.0
712 37.0 13.0
713 34.0 26.0
714 22.0 24.0
715 37.0 22.0
716 34.0 35.0
717 22.0 33.0
718 10.0 77.0
719 37.0 40.0
720 13.0 70.0
START_DEPOT_SECTION
1
2
3
4
5
6
7
8
9
10
11
12
13
14
15
16
17
18
19
20
21
22
23
24
25
26
27
28
29
30
31
32
33
34
35
36
37
38
39
40
41
42
43
44
45
46
47
48
49
50
51
52
53
54
55
56
57
58
59
60
61
62
63
64
65
66
67
68
69
70
71
72
73
74
75
76
77
78
79
80
81
82
83
84
85
86
87
88
89
90
91
92
93
94
95
96
97
98
99
100
101
102
103
104
105
106
107
108
109
110
111
112
113
114
115
116
117
118
119
120
-1
END_DEPOT_SECTION
121
122
123
124
125
126
127
128
129
130
131
132
133
134
135
136
137
138
139
140
141
142
143
144
145
146
147
148
149
150
151
152
153
154
155
156
157
158
159
160
161
162
163
164
165
166
167
168
169
170
171
172
173
174
175
176
177
178
179
180
181
182
183
184
185
186
187
188
189
190
191
192
193
194
195
196
197
198
199
200
201
202
203
204
205
206
207
208
209
210
211
212
213
214
215
216
217
218
219
220
221
222
223
224
225
226
227
228
229
230
231
232
233
234
235
236
237
238
239
240
-1
EOF
